SumColouring/JavaBacktracker/RandomInstances/14_0.10_3.col
c File: instances/14_0.10_3.col
c
c Description: Random graph of size 14 vertices and P(0.1) of edges between any two vertices.
p col 14 91
e 1 8
e 2 13
e 3 11
e 4 7
e 4 14
e 5 10
e 6 9
e 7 9
e 8 9
e 10 12
e 11 13
e 12 13