SumColouring/MiniZinc model/Experiments/14_0.10_3.col.dzn
% Data file generated from RandomInstances/14_0.10_3.col DIMACS file
size = 14;

chi = 2;

adjacency = [|0,0,0,0,0,0,0,1,0,0,0,0,0,0,
|0,0,0,0,0,0,0,0,0,0,0,0,1,0,
|0,0,0,0,0,0,0,0,0,0,1,0,0,0,
|0,0,0,0,0,0,1,0,0,0,0,0,0,1,
|0,0,0,0,0,0,0,0,0,1,0,0,0,0,
|0,0,0,0,0,0,0,0,1,0,0,0,0,0,
|0,0,0,1,0,0,0,0,1,0,0,0,0,0,
|1,0,0,0,0,0,0,0,1,0,0,0,0,0,
|0,0,0,0,0,1,1,1,0,0,0,0,0,0,
|0,0,0,0,1,0,0,0,0,0,0,1,0,0,
|0,0,1,0,0,0,0,0,0,0,0,0,1,0,
|0,0,0,0,0,0,0,0,0,1,0,0,1,0,
|0,1,0,0,0,0,0,0,0,0,1,1,0,0,
|0,0,0,1,0,0,0,0,0,0,0,0,0,0,
|];